p cnf 200 1110
-101 95 0
-101 59 0
-101 58 0
-101 -66 0
-101 12 0
-101 37 0
-101 30 0
-101 9 0
-101 81 0
-101 8 0
101 -95 -59 -58 66 -12 -37 -30 -9 -81 -8 0
-102 81 0
-102 4 0
-102 -29 0
-102 12 0
-102 -34 0
-102 -62 0
-102 -69 0
-102 -58 0
-102 92 0
-102 -33 0
102 -81 -4 29 -12 34 62 69 58 -92 33 0
-103 69 0
-103 6 0
-103 -56 0
-103 94 0
-103 -90 0
-103 26 0
-103 -66 0
-103 -40 0
-103 -60 0
-103 46 0
103 -69 -6 56 -94 90 -26 66 40 60 -46 0
-104 89 0
-104 98 0
-104 -19 0
-104 -76 0
-104 -41 0
-104 -81 0
-104 75 0
-104 54 0
-104 84 0
-104 -1 0
104 -89 -98 19 76 41 81 -75 -54 -84 1 0
-105 -29 0
-105 84 0
-105 -32 0
-105 89 0
-105 57 0
-105 97 0
-105 -85 0
-105 98 0
-105 72 0
-105 91 0
105 29 -84 32 -89 -57 -97 85 -98 -72 -91 0
-106 -53 0
-106 -82 0
-106 98 0
-106 -14 0
-106 41 0
-106 46 0
-106 -35 0
-106 -67 0
-106 -31 0
-106 54 0
106 53 82 -98 14 -41 -46 35 67 31 -54 0
-107 74 0
-107 82 0
-107 -15 0
-107 -57 0
-107 50 0
-107 89 0
-107 51 0
-107 -99 0
-107 -49 0
-107 -40 0
107 -74 -82 15 57 -50 -89 -51 99 49 40 0
-108 81 0
-108 85 0
-108 10 0
-108 -25 0
-108 -93 0
-108 65 0
-108 94 0
-108 -99 0
-108 -37 0
-108 36 0
108 -81 -85 -10 25 93 -65 -94 99 37 -36 0
-109 12 0
-109 -17 0
-109 -7 0
-109 69 0
-109 86 0
-109 -18 0
-109 -40 0
-109 45 0
-109 -95 0
-109 72 0
109 -12 17 7 -69 -86 18 40 -45 95 -72 0
-110 -56 0
-110 91 0
-110 28 0
-110 78 0
-110 74 0
-110 -15 0
-110 -25 0
-110 79 0
-110 -46 0
-110 64 0
110 56 -91 -28 -78 -74 15 25 -79 46 -64 0
101 102 103 104 105 106 107 108 109 110 0
-111 -11 0
-111 67 0
-111 43 0
-111 65 0
-111 -51 0
-111 -31 0
-111 28 0
-111 -13 0
-111 -30 0
-111 -10 0
111 11 -67 -43 -65 51 31 -28 13 30 10 0
-112 -1 0
-112 41 0
-112 -34 0
-112 -11 0
-112 4 0
-112 -70 0
-112 57 0
-112 20 0
-112 35 0
-112 90 0
112 1 -41 34 11 -4 70 -57 -20 -35 -90 0
-113 -29 0
-113 32 0
-113 -7 0
-113 52 0
-113 89 0
-113 79 0
-113 -61 0
-113 99 0
-113 15 0
-113 -39 0
113 29 -32 7 -52 -89 -79 61 -99 -15 39 0
-114 62 0
-114 16 0
-114 -33 0
-114 -2 0
-114 -56 0
-114 19 0
-114 -22 0
-114 72 0
-114 -21 0
-114 23 0
114 -62 -16 33 2 56 -19 22 -72 21 -23 0
-115 -48 0
-115 -20 0
-115 -96 0
-115 60 0
-115 46 0
-115 -67 0
-115 -69 0
-115 65 0
-115 -97 0
-115 78 0
115 48 20 96 -60 -46 67 69 -65 97 -78 0
-116 19 0
-116 88 0
-116 11 0
-116 86 0
-116 49 0
-116 -34 0
-116 -17 0
-116 15 0
-116 63 0
-116 -14 0
116 -19 -88 -11 -86 -49 34 17 -15 -63 14 0
-117 86 0
-117 35 0
-117 28 0
-117 21 0
-117 -23 0
-117 -30 0
-117 -3 0
-117 4 0
-117 -49 0
-117 14 0
117 -86 -35 -28 -21 23 30 3 -4 49 -14 0
-118 -60 0
-118 51 0
-118 30 0
-118 94 0
-118 -53 0
-118 -57 0
-118 -73 0
-118 -4 0
-118 -15 0
-118 55 0
118 60 -51 -30 -94 53 57 73 4 15 -55 0
-119 80 0
-119 44 0
-119 53 0
-119 -32 0
-119 -78 0
-119 12 0
-119 -89 0
-119 100 0
-119 24 0
-119 -11 0
119 -80 -44 -53 32 78 -12 89 -100 -24 11 0
-120 -91 0
-120 39 0
-120 77 0
-120 -12 0
-120 3 0
-120 36 0
-120 44 0
-120 71 0
-120 40 0
-120 64 0
120 91 -39 -77 12 -3 -36 -44 -71 -40 -64 0
111 112 113 114 115 116 117 118 119 120 0
-121 9 0
-121 43 0
-121 -67 0
-121 -3 0
-121 -86 0
-121 49 0
-121 76 0
-121 89 0
-121 -6 0
-121 -31 0
121 -9 -43 67 3 86 -49 -76 -89 6 31 0
-122 12 0
-122 -51 0
-122 22 0
-122 -23 0
-122 -38 0
-122 16 0
-122 28 0
-122 14 0
-122 55 0
-122 -85 0
122 -12 51 -22 23 38 -16 -28 -14 -55 85 0
-123 6 0
-123 -85 0
-123 -60 0
-123 -97 0
-123 52 0
-123 12 0
-123 22 0
-123 96 0
-123 71 0
-123 68 0
123 -6 85 60 97 -52 -12 -22 -96 -71 -68 0
-124 -80 0
-124 -46 0
-124 42 0
-124 74 0
-124 -24 0
-124 62 0
-124 50 0
-124 -68 0
-124 71 0
-124 -49 0
124 80 46 -42 -74 24 -62 -50 68 -71 49 0
-125 32 0
-125 -4 0
-125 16 0
-125 -19 0
-125 -95 0
-125 -53 0
-125 -57 0
-125 26 0
-125 -43 0
-125 36 0
125 -32 4 -16 19 95 53 57 -26 43 -36 0
-126 -15 0
-126 -59 0
-126 -50 0
-126 -36 0
-126 24 0
-126 90 0
-126 -48 0
-126 -67 0
-126 -49 0
-126 27 0
126 15 59 50 36 -24 -90 48 67 49 -27 0
-127 64 0
-127 43 0
-127 -71 0
-127 -1 0
-127 67 0
-127 90 0
-127 -100 0
-127 96 0
-127 82 0
-127 27 0
127 -64 -43 71 1 -67 -90 100 -96 -82 -27 0
-128 -68 0
-128 84 0
-128 24 0
-128 38 0
-128 85 0
-128 -37 0
-128 59 0
-128 -12 0
-128 -62 0
-128 42 0
128 68 -84 -24 -38 -85 37 -59 12 62 -42 0
-129 58 0
-129 9 0
-129 21 0
-129 -28 0
-129 -30 0
-129 20 0
-129 -2 0
-129 22 0
-129 -70 0
-129 -7 0
129 -58 -9 -21 28 30 -20 2 -22 70 7 0
-130 93 0
-130 57 0
-130 -88 0
-130 50 0
-130 29 0
-130 10 0
-130 68 0
-130 -14 0
-130 -28 0
-130 -56 0
130 -93 -57 88 -50 -29 -10 -68 14 28 56 0
121 122 123 124 125 126 127 128 129 130 0
-131 -99 0
-131 23 0
-131 98 0
-131 87 0
-131 82 0
-131 27 0
-131 81 0
-131 -49 0
-131 7 0
-131 66 0
131 99 -23 -98 -87 -82 -27 -81 49 -7 -66 0
-132 27 0
-132 -59 0
-132 -58 0
-132 -21 0
-132 -61 0
-132 -52 0
-132 82 0
-132 -96 0
-132 70 0
-132 49 0
132 -27 59 58 21 61 52 -82 96 -70 -49 0
-133 6 0
-133 -82 0
-133 -68 0
-133 -100 0
-133 16 0
-133 -89 0
-133 88 0
-133 55 0
-133 42 0
-133 -39 0
133 -6 82 68 100 -16 89 -88 -55 -42 39 0
-134 -5 0
-134 -72 0
-134 -98 0
-134 33 0
-134 -45 0
-134 -16 0
-134 92 0
-134 -52 0
-134 -76 0
-134 14 0
134 5 72 98 -33 45 16 -92 52 76 -14 0
-135 -52 0
-135 32 0
-135 -11 0
-135 55 0
-135 -42 0
-135 43 0
-135 -54 0
-135 -97 0
-135 -88 0
-135 -12 0
135 52 -32 11 -55 42 -43 54 97 88 12 0
-136 -24 0
-136 29 0
-136 -51 0
-136 2 0
-136 1 0
-136 -71 0
-136 7 0
-136 77 0
-136 -63 0
-136 -22 0
136 24 -29 51 -2 -1 71 -7 -77 63 22 0
-137 26 0
-137 -13 0
-137 -83 0
-137 -82 0
-137 74 0
-137 -75 0
-137 50 0
-137 -8 0
-137 -32 0
-137 65 0
137 -26 13 83 82 -74 75 -50 8 32 -65 0
-138 98 0
-138 -22 0
-138 -29 0
-138 3 0
-138 -96 0
-138 61 0
-138 81 0
-138 -93 0
-138 -73 0
-138 -77 0
138 -98 22 29 -3 96 -61 -81 93 73 77 0
-139 -52 0
-139 81 0
-139 -79 0
-139 65 0
-139 67 0
-139 76 0
-139 39 0
-139 60 0
-139 -86 0
-139 41 0
139 52 -81 79 -65 -67 -76 -39 -60 86 -41 0
-140 -18 0
-140 12 0
-140 -89 0
-140 44 0
-140 -58 0
-140 71 0
-140 -8 0
-140 -50 0
-140 -28 0
-140 15 0
140 18 -12 89 -44 58 -71 8 50 28 -15 0
131 132 133 134 135 136 137 138 139 140 0
-141 43 0
-141 70 0
-141 -4 0
-141 -59 0
-141 -3 0
-141 85 0
-141 -92 0
-141 51 0
-141 -30 0
-141 -64 0
141 -43 -70 4 59 3 -85 92 -51 30 64 0
-142 14 0
-142 -95 0
-142 -75 0
-142 -13 0
-142 -60 0
-142 2 0
-142 37 0
-142 73 0
-142 30 0
-142 -84 0
142 -14 95 75 13 60 -2 -37 -73 -30 84 0
-143 -56 0
-143 -28 0
-143 -38 0
-143 49 0
-143 97 0
-143 -30 0
-143 -57 0
-143 1 0
-143 -84 0
-143 66 0
143 56 28 38 -49 -97 30 57 -1 84 -66 0
-144 -60 0
-144 -63 0
-144 74 0
-144 64 0
-144 -21 0
-144 80 0
-144 90 0
-144 32 0
-144 -2 0
-144 47 0
144 60 63 -74 -64 21 -80 -90 -32 2 -47 0
-145 -77 0
-145 -64 0
-145 -82 0
-145 -52 0
-145 -51 0
-145 -4 0
-145 25 0
-145 -83 0
-145 17 0
-145 -76 0
145 77 64 82 52 51 4 -25 83 -17 76 0
-146 10 0
-146 -44 0
-146 43 0
-146 -3 0
-146 48 0
-146 -5 0
-146 13 0
-146 56 0
-146 -67 0
-146 33 0
146 -10 44 -43 3 -48 5 -13 -56 67 -33 0
-147 64 0
-147 -17 0
-147 -46 0
-147 5 0
-147 -87 0
-147 58 0
-147 -4 0
-147 -27 0
-147 -13 0
-147 92 0
147 -64 17 46 -5 87 -58 4 27 13 -92 0
-148 5 0
-148 1 0
-148 -43 0
-148 -96 0
-148 64 0
-148 4 0
-148 7 0
-148 23 0
-148 -55 0
-148 -83 0
148 -5 -1 43 96 -64 -4 -7 -23 55 83 0
-149 73 0
-149 37 0
-149 28 0
-149 -78 0
-149 -6 0
-149 11 0
-149 12 0
-149 49 0
-149 9 0
-149 -7 0
149 -73 -37 -28 78 6 -11 -12 -49 -9 7 0
-150 95 0
-150 24 0
-150 -76 0
-150 20 0
-150 -29 0
-150 -31 0
-150 25 0
-150 -77 0
-150 -81 0
-150 41 0
150 -95 -24 76 -20 29 31 -25 77 81 -41 0
141 142 143 144 145 146 147 148 149 150 0
-151 56 0
-151 -25 0
-151 83 0
-151 88 0
-151 69 0
-151 -34 0
-151 -53 0
-151 -72 0
-151 17 0
-151 63 0
151 -56 25 -83 -88 -69 34 53 72 -17 -63 0
-152 -5 0
-152 -25 0
-152 -47 0
-152 19 0
-152 -85 0
-152 -74 0
-152 -8 0
-152 -67 0
-152 -37 0
-152 83 0
152 5 25 47 -19 85 74 8 67 37 -83 0
-153 23 0
-153 96 0
-153 -28 0
-153 64 0
-153 57 0
-153 24 0
-153 77 0
-153 -32 0
-153 74 0
-153 -98 0
153 -23 -96 28 -64 -57 -24 -77 32 -74 98 0
-154 -69 0
-154 -60 0
-154 -52 0
-154 -55 0
-154 1 0
-154 14 0
-154 -41 0
-154 -57 0
-154 -30 0
-154 -53 0
154 69 60 52 55 -1 -14 41 57 30 53 0
-155 -47 0
-155 89 0
-155 -3 0
-155 73 0
-155 69 0
-155 26 0
-155 90 0
-155 -21 0
-155 52 0
-155 -94 0
155 47 -89 3 -73 -69 -26 -90 21 -52 94 0
-156 72 0
-156 15 0
-156 -48 0
-156 -57 0
-156 -36 0
-156 23 0
-156 26 0
-156 86 0
-156 4 0
-156 -58 0
156 -72 -15 48 57 36 -23 -26 -86 -4 58 0
-157 78 0
-157 -75 0
-157 -21 0
-157 -94 0
-157 28 0
-157 39 0
-157 -41 0
-157 64 0
-157 76 0
-157 1 0
157 -78 75 21 94 -28 -39 41 -64 -76 -1 0
-158 -97 0
-158 48 0
-158 39 0
-158 43 0
-158 -70 0
-158 84 0
-158 -90 0
-158 53 0
-158 42 0
-158 -11 0
158 97 -48 -39 -43 70 -84 90 -53 -42 11 0
-159 96 0
-159 73 0
-159 -1 0
-159 98 0
-159 -25 0
-159 39 0
-159 -81 0
-159 42 0
-159 67 0
-159 64 0
159 -96 -73 1 -98 25 -39 81 -42 -67 -64 0
-160 33 0
-160 58 0
-160 -28 0
-160 61 0
-160 43 0
-160 -3 0
-160 -99 0
-160 38 0
-160 -87 0
-160 88 0
160 -33 -58 28 -61 -43 3 99 -38 87 -88 0
151 152 153 154 155 156 157 158 159 160 0
-161 17 0
-161 -86 0
-161 66 0
-161 -81 0
-161 40 0
-161 -75 0
-161 50 0
-161 -18 0
-161 36 0
-161 -16 0
161 -17 86 -66 81 -40 75 -50 18 -36 16 0
-162 -6 0
-162 -90 0
-162 -15 0
-162 29 0
-162 91 0
-162 -93 0
-162 47 0
-162 95 0
-162 -88 0
-162 -67 0
162 6 90 15 -29 -91 93 -47 -95 88 67 0
-163 -47 0
-163 7 0
-163 95 0
-163 12 0
-163 -84 0
-163 71 0
-163 21 0
-163 23 0
-163 43 0
-163 33 0
163 47 -7 -95 -12 84 -71 -21 -23 -43 -33 0
-164 13 0
-164 -60 0
-164 -27 0
-164 -21 0
-164 86 0
-164 -16 0
-164 -33 0
-164 -73 0
-164 -75 0
-164 -25 0
164 -13 60 27 21 -86 16 33 73 75 25 0
-165 -65 0
-165 40 0
-165 -39 0
-165 -84 0
-165 -59 0
-165 -25 0
-165 95 0
-165 -61 0
-165 -1 0
-165 82 0
165 65 -40 39 84 59 25 -95 61 1 -82 0
-166 48 0
-166 3 0
-166 89 0
-166 76 0
-166 -92 0
-166 26 0
-166 -85 0
-166 67 0
-166 63 0
-166 78 0
166 -48 -3 -89 -76 92 -26 85 -67 -63 -78 0
-167 29 0
-167 52 0
-167 -84 0
-167 -80 0
-167 -33 0
-167 -44 0
-167 -63 0
-167 89 0
-167 36 0
-167 16 0
167 -29 -52 84 80 33 44 63 -89 -36 -16 0
-168 54 0
-168 -75 0
-168 -57 0
-168 -33 0
-168 98 0
-168 25 0
-168 3 0
-168 -14 0
-168 40 0
-168 88 0
168 -54 75 57 33 -98 -25 -3 14 -40 -88 0
-169 -62 0
-169 -42 0
-169 90 0
-169 98 0
-169 -79 0
-169 -1 0
-169 73 0
-169 -12 0
-169 22 0
-169 -92 0
169 62 42 -90 -98 79 1 -73 12 -22 92 0
-170 31 0
-170 -45 0
-170 70 0
-170 -27 0
-170 60 0
-170 -86 0
-170 -6 0
-170 -56 0
-170 30 0
-170 77 0
170 -31 45 -70 27 -60 86 6 56 -30 -77 0
161 162 163 164 165 166 167 168 169 170 0
-171 -44 0
-171 17 0
-171 6 0
-171 -9 0
-171 -23 0
-171 76 0
-171 -54 0
-171 28 0
-171 -41 0
-171 59 0
171 44 -17 -6 9 23 -76 54 -28 41 -59 0
-172 -83 0
-172 -25 0
-172 -60 0
-172 -42 0
-172 38 0
-172 -40 0
-172 -18 0
-172 26 0
-172 -14 0
-172 44 0
172 83 25 60 42 -38 40 18 -26 14 -44 0
-173 59 0
-173 -3 0
-173 -38 0
-173 -66 0
-173 -99 0
-173 72 0
-173 33 0
-173 -49 0
-173 -31 0
-173 27 0
173 -59 3 38 66 99 -72 -33 49 31 -27 0
-174 -9 0
-174 44 0
-174 58 0
-174 -67 0
-174 8 0
-174 -85 0
-174 93 0
-174 51 0
-174 99 0
-174 38 0
174 9 -44 -58 67 -8 85 -93 -51 -99 -38 0
-175 48 0
-175 -6 0
-175 -25 0
-175 -31 0
-175 21 0
-175 -82 0
-175 -9 0
-175 93 0
-175 74 0
-175 -23 0
175 -48 6 25 31 -21 82 9 -93 -74 23 0
-176 -99 0
-176 -23 0
-176 -57 0
-176 -59 0
-176 97 0
-176 12 0
-176 -49 0
-176 -89 0
-176 43 0
-176 74 0
176 99 23 57 59 -97 -12 49 89 -43 -74 0
-177 -7 0
-177 40 0
-177 32 0
-177 -50 0
-177 11 0
-177 99 0
-177 29 0
-177 87 0
-177 98 0
-177 83 0
177 7 -40 -32 50 -11 -99 -29 -87 -98 -83 0
-178 78 0
-178 -14 0
-178 44 0
-178 2 0
-178 22 0
-178 -32 0
-178 69 0
-178 -48 0
-178 58 0
-178 -61 0
178 -78 14 -44 -2 -22 32 -69 48 -58 61 0
-179 -33 0
-179 21 0
-179 98 0
-179 -64 0
-179 94 0
-179 96 0
-179 85 0
-179 -86 0
-179 -22 0
-179 -87 0
179 33 -21 -98 64 -94 -96 -85 86 22 87 0
-180 90 0
-180 98 0
-180 27 0
-180 -82 0
-180 65 0
-180 35 0
-180 52 0
-180 43 0
-180 46 0
-180 -75 0
180 -90 -98 -27 82 -65 -35 -52 -43 -46 75 0
171 172 173 174 175 176 177 178 179 180 0
-181 -88 0
-181 64 0
-181 36 0
-181 69 0
-181 51 0
-181 45 0
-181 -2 0
-181 22 0
-181 -78 0
-181 -23 0
181 88 -64 -36 -69 -51 -45 2 -22 78 23 0
-182 12 0
-182 43 0
-182 46 0
-182 -57 0
-182 -52 0
-182 44 0
-182 35 0
-182 -5 0
-182 16 0
-182 -63 0
182 -12 -43 -46 57 52 -44 -35 5 -16 63 0
-183 -60 0
-183 43 0
-183 87 0
-183 -82 0
-183 -19 0
-183 -89 0
-183 13 0
-183 -12 0
-183 -16 0
-183 -22 0
183 60 -43 -87 82 19 89 -13 12 16 22 0
-184 54 0
-184 -61 0
-184 -99 0
-184 85 0
-184 23 0
-184 -60 0
-184 20 0
-184 86 0
-184 -62 0
-184 -22 0
184 -54 61 99 -85 -23 60 -20 -86 62 22 0
-185 -68 0
-185 -69 0
-185 61 0
-185 33 0
-185 91 0
-185 51 0
-185 75 0
-185 12 0
-185 -14 0
-185 2 0
185 68 69 -61 -33 -91 -51 -75 -12 14 -2 0
-186 -55 0
-186 35 0
-186 99 0
-186 -74 0
-186 75 0
-186 65 0
-186 -81 0
-186 -19 0
-186 -50 0
-186 -68 0
186 55 -35 -99 74 -75 -65 81 19 50 68 0
-187 27 0
-187 -47 0
-187 19 0
-187 88 0
-187 58 0
-187 91 0
-187 -64 0
-187 9 0
-187 21 0
-187 -55 0
187 -27 47 -19 -88 -58 -91 64 -9 -21 55 0
-188 -56 0
-188 80 0
-188 22 0
-188 -96 0
-188 -35 0
-188 11 0
-188 76 0
-188 75 0
-188 27 0
-188 -18 0
188 56 -80 -22 96 35 -11 -76 -75 -27 18 0
-189 -32 0
-189 20 0
-189 -37 0
-189 2 0
-189 38 0
-189 65 0
-189 35 0
-189 -70 0
-189 -19 0
-189 27 0
189 32 -20 37 -2 -38 -65 -35 70 19 -27 0
-190 -29 0
-190 -50 0
-190 78 0
-190 1 0
-190 -11 0
-190 42 0
-190 48 0
-190 34 0
-190 -18 0
-190 30 0
190 29 50 -78 -1 11 -42 -48 -34 18 -30 0
181 182 183 184 185 186 187 188 189 190 0
-191 20 0
-191 -29 0
-191 -13 0
-191 66 0
-191 -52 0
-191 27 0
-191 59 0
-191 -34 0
-191 38 0
-191 56 0
191 -20 29 13 -66 52 -27 -59 34 -38 -56 0
-192 -75 0
-192 25 0
-192 -42 0
-192 85 0
-192 67 0
-192 -37 0
-192 96 0
-192 -90 0
-192 18 0
-192 -33 0
192 75 -25 42 -85 -67 37 -96 90 -18 33 0
-193 25 0
-193 8 0
-193 14 0
-193 -65 0
-193 -53 0
-193 -61 0
-193 -83 0
-193 51 0
-193 -96 0
-193 -99 0
193 -25 -8 -14 65 53 61 83 -51 96 99 0
-194 42 0
-194 2 0
-194 56 0
-194 -54 0
-194 -58 0
-194 -8 0
-194 -31 0
-194 65 0
-194 23 0
-194 -29 0
194 -42 -2 -56 54 58 8 31 -65 -23 29 0
-195 54 0
-195 -53 0
-195 -16 0
-195 65 0
-195 90 0
-195 51 0
-195 -87 0
-195 19 0
-195 47 0
-195 -64 0
195 -54 53 16 -65 -90 -51 87 -19 -47 64 0
-196 -25 0
-196 16 0
-196 1 0
-196 -80 0
-196 -93 0
-196 67 0
-196 -57 0
-196 34 0
-196 -81 0
-196 -52 0
196 25 -16 -1 80 93 -67 57 -34 81 52 0
-197 55 0
-197 -16 0
-197 -70 0
-197 -92 0
-197 67 0
-197 8 0
-197 26 0
-197 80 0
-197 -13 0
-197 -31 0
197 -55 16 70 92 -67 -8 -26 -80 13 31 0
-198 9 0
-198 -71 0
-198 -94 0
-198 -78 0
-198 66 0
-198 -51 0
-198 -82 0
-198 57 0
-198 -77 0
-198 -72 0
198 -9 71 94 78 -66 51 82 -57 77 72 0
-199 -14 0
-199 70 0
-199 5 0
-199 30 0
-199 25 0
-199 -77 0
-199 13 0
-199 -33 0
-199 85 0
-199 -67 0
199 14 -70 -5 -30 -25 77 -13 33 -85 67 0
-200 12 0
-200 -32 0
-200 -52 0
-200 -88 0
-200 -63 0
-200 72 0
-200 -37 0
-200 87 0
-200 -15 0
-200 16 0
200 -12 32 52 88 63 -72 37 -87 15 -16 0
191 192 193 194 195 196 197 198 199 200 0
